solution status: optimal solution found
objective value:                                   15
x48                                                 1 	(obj:1)
x49                                                 1 	(obj:1)
x50                                                 1 	(obj:1)
x54                                                 1 	(obj:1)
x58                                                 1 	(obj:1)
x62                                                 1 	(obj:1)
x71                                                 1 	(obj:1)
x82                                                 1 	(obj:1)
x83                                                 1 	(obj:1)
x85                                                 1 	(obj:1)
x86                                                 1 	(obj:1)
x88                                                 1 	(obj:1)
x90                                                 1 	(obj:1)
x93                                                 1 	(obj:1)
x117                                                1 	(obj:1)
thingy.ctrl_inlet_pinholes[2].hole_y                   16 	(obj:0)
thingy.ctrl_inlet_pinholes[2].hole_z                   20 	(obj:0)
thingy.ctrl_inlet_pinholes[0].hole_y                   16 	(obj:0)
thingy.ctrl_inlet_pinholes[0].hole_z                   18 	(obj:0)
thingy.ctrl_bead_hole_y                            18 	(obj:0)
thingy.ctrl_bead_hole_z                            16 	(obj:0)
thingy.ctrl_stage_inlet_hole_y                     18 	(obj:0)
thingy.ctrl_stage_inlet_hole_z                     18 	(obj:0)
thingy.flush_inlet_pinholes[2].hole_y                   16 	(obj:0)
thingy.flush_inlet_pinholes[2].hole_z                   22 	(obj:0)
thingy.thingy.chamber[1].first.vpump2.valves[0].vinlet_y                   21 	(obj:0)
thingy.thingy.chamber[1].first.vpump2.valves[0].vinlet_z                   15 	(obj:0)
thingy.thingy.chamber[0].first.vpump2.valves[0].vinlet_y                   22 	(obj:0)
thingy.thingy.chamber[0].first.vpump2.valves[0].vinlet_z                   17 	(obj:0)
thingy.ctrl_inlet_pinholes[3].hole_y                   16 	(obj:0)
thingy.ctrl_inlet_pinholes[3].hole_z                   19 	(obj:0)
thingy.thingy.chamber[0].first.vpump1.valves[0].vinlet_y                   20 	(obj:0)
thingy.thingy.chamber[0].first.vpump1.valves[0].vinlet_z                   17 	(obj:0)
thingy.ctrl_inlet_pinholes[1].hole_y                   20 	(obj:0)
thingy.ctrl_inlet_pinholes[1].hole_z                   15 	(obj:0)
thingy.flush_inlet_pinholes[0].hole_y                   16 	(obj:0)
thingy.flush_inlet_pinholes[0].hole_z                   17 	(obj:0)
thingy.thingy.prep.vin_y                           20 	(obj:0)
thingy.thingy.prep.vin_z                           19 	(obj:0)
thingy.ctrl_inlet_pinholes[4].hole_y                   16 	(obj:0)
thingy.ctrl_inlet_pinholes[4].hole_z                   15 	(obj:0)
thingy.flush_inlet_pinholes[4].hole_y                   16 	(obj:0)
thingy.flush_inlet_pinholes[4].hole_z                   16 	(obj:0)
thingy.thingy.chamber[3].first.vpump2.valves[0].vinlet_y                   19 	(obj:0)
thingy.thingy.chamber[3].first.vpump2.valves[0].vinlet_z                   15 	(obj:0)
thingy.thingy.chamber[2].first.vpump1.valves[0].vinlet_y                   18 	(obj:0)
thingy.thingy.chamber[2].first.vpump1.valves[0].vinlet_z                   15 	(obj:0)
thingy.thingy.chamber[2].first.vpump2.valves[0].vinlet_y                   21 	(obj:0)
thingy.thingy.chamber[2].first.vpump2.valves[0].vinlet_z                   13 	(obj:0)
thingy.flush_inlet_pinholes[3].hole_y                   16 	(obj:0)
thingy.flush_inlet_pinholes[3].hole_z                   21 	(obj:0)
thingy.flush_bead_hole_y                           16 	(obj:0)
thingy.flush_bead_hole_z                           11 	(obj:0)
thingy.thingy.chamber[1].first.vpump1.valves[0].vinlet_y                   20 	(obj:0)
thingy.thingy.chamber[1].first.vpump1.valves[0].vinlet_z                   16 	(obj:0)
thingy.flush_inlet_pinholes[1].hole_y                   17 	(obj:0)
thingy.flush_inlet_pinholes[1].hole_z                   15 	(obj:0)
thingy.flush_stage_inlet_hole_y                    17 	(obj:0)
thingy.flush_stage_inlet_hole_z                    11 	(obj:0)
thingy.thingy.chamber[3].first.vpump1.valves[0].vinlet_y                   18 	(obj:0)
thingy.thingy.chamber[3].first.vpump1.valves[0].vinlet_z                   14 	(obj:0)
